c generated by sgen1
c Command: ./sgen1 -unsat -n 85 -s 100 
c http://www.cs.qub.ac.uk/~i.spence/sgen/
p cnf 85 180
-2 -3 -4 0
-1 -3 -4 0
-1 -2 -4 0
-1 -2 -3 0
-6 -7 -8 0
-5 -7 -8 0
-5 -6 -8 0
-5 -6 -7 0
-10 -11 -12 0
-9 -11 -12 0
-9 -10 -12 0
-9 -10 -11 0
-14 -15 -16 0
-13 -15 -16 0
-13 -14 -16 0
-13 -14 -15 0
-18 -19 -20 0
-17 -19 -20 0
-17 -18 -20 0
-17 -18 -19 0
-22 -23 -24 0
-21 -23 -24 0
-21 -22 -24 0
-21 -22 -23 0
-26 -27 -28 0
-25 -27 -28 0
-25 -26 -28 0
-25 -26 -27 0
-30 -31 -32 0
-29 -31 -32 0
-29 -30 -32 0
-29 -30 -31 0
-34 -35 -36 0
-33 -35 -36 0
-33 -34 -36 0
-33 -34 -35 0
-38 -39 -40 0
-37 -39 -40 0
-37 -38 -40 0
-37 -38 -39 0
-42 -43 -44 0
-41 -43 -44 0
-41 -42 -44 0
-41 -42 -43 0
-46 -47 -48 0
-45 -47 -48 0
-45 -46 -48 0
-45 -46 -47 0
-50 -51 -52 0
-49 -51 -52 0
-49 -50 -52 0
-49 -50 -51 0
-54 -55 -56 0
-53 -55 -56 0
-53 -54 -56 0
-53 -54 -55 0
-58 -59 -60 0
-57 -59 -60 0
-57 -58 -60 0
-57 -58 -59 0
-62 -63 -64 0
-61 -63 -64 0
-61 -62 -64 0
-61 -62 -63 0
-66 -67 -68 0
-65 -67 -68 0
-65 -66 -68 0
-65 -66 -67 0
-70 -71 -72 0
-69 -71 -72 0
-69 -70 -72 0
-69 -70 -71 0
-74 -75 -76 0
-73 -75 -76 0
-73 -74 -76 0
-73 -74 -75 0
-78 -79 -80 0
-77 -79 -80 0
-77 -78 -80 0
-77 -78 -79 0
-81 -82 -83  0
-81 -82 -84  0
-81 -82 -85  0
-81 -83 -84  0
-81 -83 -85  0
-81 -84 -85  0
-82 -83 -84  0
-82 -83 -85  0
-82 -84 -85  0
-83 -84 -85  0
39 43 14 0
1 43 14 0
1 39 14 0
1 39 43 0
15 18 11 0
7 18 11 0
7 15 11 0
7 15 18 0
40 62 57 0
9 62 57 0
9 40 57 0
9 40 62 0
22 79 60 0
13 79 60 0
13 22 60 0
13 22 79 0
67 16 26 0
34 16 26 0
34 67 26 0
34 67 16 0
20 28 58 0
53 28 58 0
53 20 58 0
53 20 28 0
56 23 47 0
52 23 47 0
52 56 47 0
52 56 23 0
83 61 75 0
17 61 75 0
17 83 75 0
17 83 61 0
76 29 5 0
50 29 5 0
50 76 5 0
50 76 29 0
54 44 10 0
32 44 10 0
32 54 10 0
32 54 44 0
66 36 42 0
8 36 42 0
8 66 42 0
8 66 36 0
85 48 12 0
65 48 12 0
65 85 12 0
65 85 48 0
59 70 6 0
4 70 6 0
4 59 6 0
4 59 70 0
2 68 64 0
21 68 64 0
21 2 64 0
21 2 68 0
46 73 80 0
35 73 80 0
35 46 80 0
35 46 73 0
49 84 27 0
41 84 27 0
41 49 27 0
41 49 84 0
3 81 78 0
30 81 78 0
30 3 78 0
30 3 81 0
25 37 74 0
24 37 74 0
24 25 74 0
24 25 37 0
69 55 33 0
82 55 33 0
82 69 33 0
82 69 55 0
63 45 31 0
72 45 31 0
72 63 31 0
72 63 45 0
38 51 77  0
38 51 71  0
38 51 19  0
38 77 71  0
38 77 19  0
38 71 19  0
51 77 71  0
51 77 19  0
51 71 19  0
77 71 19  0
